0 79 
1 79 
2 78 
3 79 
4 79 
5 82 
6 83 
7 83 
8 84 
9 83 
10 82 
11 81 
12 80 
13 79 
14 78 
15 76 
16 75 
17 75 
18 74 
19 73 
20 71 
21 70 
22 68 
23 66 
24 62 
25 61 
26 60 
27 59 
28 57 
29 58 
30 57 
31 56 
32 56 
33 53 
34 51 
35 49 
36 47 
37 44 
38 44 
39 44 
40 44 
41 43 
42 40 
43 40 
44 41 
45 40 
46 39 
47 40 
48 40 
49 39 
50 38 
51 37 
52 35 
53 33 
54 32 
55 31 
56 30 
57 29 
58 29 
59 28 
60 27 
61 27 
62 26 
63 25 
64 23 
65 21 
66 19 
67 20 
68 19 
69 17 
70 15 
71 15 
72 13 
73 13 
74 14 
75 13 
76 12 
77 10 
78 10 
79 9 
80 8 
81 8 
82 7 
83 6 
84 4 
85 3 
86 2 
87 1 
88 0 
89 0 

